(set-info :smt-lib-version 2.6)
(set-logic QF_S)
(set-info :source |
Generated by: Murphy Berzish, Mitja Kulczynski, Federico Mora, Florin Manea, Joel Day, Dirk Nowotka, Vijay Ganesh, Zhengyang Lu
Generated on: 2020-10-01
Description: Translated from a collection of real-world regex queries, AutomataArk, collected by Loris D’Antoni and Fang Wang: https://github.com/lorisdanto/automatark
Application: Evaluate solvers on real-world regex queries
Target solver: Z3str3RE, CVC4, OSTRICH, Z3seq, Z3str3, Z3-Trau
Publications: Berzish, M., Kulczynski, M., Mora, F., Manea, F., Day, J. D., Nowotka, D., & Ganesh, V. (2021, July). An SMT solver for regular expressions and linear arithmetic over string length. In CAV 2021.
|)
(set-info :license "https://creativecommons.org/licenses/by/4.0/")
(set-info :category "industrial")
(set-info :status unsat)

(declare-const X String)
(assert (str.in_re X (re.++ (str.to_re "/USER ") (re.union (str.to_re "XP") (str.to_re "98") (str.to_re "95") (str.to_re "NT") (str.to_re "ME") (str.to_re "WIN") (str.to_re "2K3")) (str.to_re "-") (re.+ (re.range "0" "9")) (str.to_re " * 0 :/mi\u{a}"))))
(assert (str.in_re X (re.++ (str.to_re "/&q=") ((_ re.loop 32 32) (re.union (re.range "a" "f") (re.range "0" "9"))) (str.to_re ",") ((_ re.loop 16 16) (re.union (re.range "a" "f") (re.range "0" "9"))) (str.to_re "&kgs=/U\u{a}"))))
(assert (str.in_re X (re.++ (re.+ (re.union (re.range "a" "z") (re.range "A" "Z") (re.range "0" "9"))) (re.* (re.++ (re.opt (re.++ (str.to_re "_") (re.union (re.range "a" "z") (re.range "A" "Z") (re.range "0" "9")))) (re.* (re.union (re.range "a" "z") (re.range "A" "Z") (re.range "0" "9"))))) (str.to_re "\u{a}"))))
(assert (str.in_re X (re.++ (str.to_re "wowokay") (re.+ (re.range "0" "9")) (str.to_re "FTP") (re.+ (re.union (str.to_re " ") (str.to_re "\u{9}") (str.to_re "\u{a}") (str.to_re "\u{c}") (str.to_re "\u{d}"))) (str.to_re "Host:Filtered\u{22}reaction.txt\u{22}\u{a}"))))
(assert (str.in_re X (re.++ (str.to_re "track") (re.+ (re.union (str.to_re " ") (str.to_re "\u{9}") (str.to_re "\u{a}") (str.to_re "\u{c}") (str.to_re "\u{d}"))) (str.to_re "community") (re.+ (re.range "0" "9")) (str.to_re "4.8.4www.maxifiles.com\u{a}"))))
(check-sat)

(exit)
